db/data/2938624088164217347153609450407630821.z3.out
-------------------
2500.173977005
